Route #1: 1 52 43 22 66 40 56 1 
Route #2: 1 48 39 59 13 30 2 7 58 29 26 46 50 10 1 
Route #3: 1 1 36 32 63 11 5 37 1 
Route #4: 1 12 6 49 33 53 31 19 28 24 1 
Route #5: 1 16 68 35 45 20 8 62 1 
Route #6: 1 17 64 18 9 51 3 15 41 38 1 
Route #7: 1 54 57 34 67 55 65 25 42 1 
Route #8: 1 14 47 4 60 21 61 27 1 
Route #9: 1 23 44 1 

Cost 1831.83
Time 0.6616


 * Another infos *

 Iterations: 69 Time: 0.6616 sec - 0.0110 min - 0.0002 horas
0.0000 h 0.0110 min
Problem dimension: 69
